Version identifier: 22.1.1.0 | 2022-11-28 | 9160aff4d
CPXPARAM_ClockType                               1
CPXPARAM_Read_DataCheck                          1
CPXPARAM_Threads                                 1
CPXPARAM_TimeLimit                               7200
CPXPARAM_MIP_Tolerances_AbsMIPGap                0
CPXPARAM_MIP_Tolerances_MIPGap                   0
CPXPARAM_MIP_Tolerances_Integrality              0
Tried aggregator 2 times.
MIP Presolve eliminated 6997 rows and 936 columns.
MIP Presolve modified 3026 coefficients.
Aggregator did 1224 substitutions.
Reduced MIP has 1768 rows, 3060 columns, and 8628 nonzeros.
Reduced MIP has 3060 binaries, 0 generals, 0 SOSs, and 0 indicators.
Presolve time = 0.03 sec. (21.15 ticks)
Probing time = 0.01 sec. (2.90 ticks)
Tried aggregator 1 time.
Detecting symmetries...
Reduced MIP has 1768 rows, 3060 columns, and 8628 nonzeros.
Reduced MIP has 3060 binaries, 0 generals, 0 SOSs, and 0 indicators.
Presolve time = 0.01 sec. (6.13 ticks)
Probing time = 0.01 sec. (2.83 ticks)
Clique table members: 6948.
MIP emphasis: balance optimality and feasibility.
MIP search method: dynamic search.
Parallel mode: none, using 1 thread.
Root relaxation solution time = 0.25 sec. (217.11 ticks)

        Nodes                                         Cuts/
   Node  Left     Objective  IInf  Best Integer    Best Bound    ItCnt     Gap

      0     0      132.0000   607                    132.0000     3230         
      0     2      132.0000   544                    132.0000     3230         
Elapsed time = 1.76 sec. (1496.99 ticks, tree = 0.01 MB, solutions = 0)
      2     4      132.0000   265                    132.0000     6641         
      4     6      132.0000   358                    132.0000     9464         
*     6     1      integral     0      132.0000      132.0000    12590    0.00%

Root node processing (before b&c):
  Real time             =    1.75 sec. (1492.76 ticks)
Sequential b&c:
  Real time             =    0.95 sec. (810.23 ticks)
                          ------------
Total (root+branch&cut) =    2.70 sec. (2302.99 ticks)
Solution is feasible.

---------------------
@@@ MIP_optimal
>>> Benchmark mc2024_track1_130.cnf k 2 OPT 132 TimeCost 3.721273422241211 TimeSolve 2.7240958213806152 TimeRead 0.006963253021240234 TimeTrans 0.9902143478393555
